	Costo	Iter.	Tiempo
1	526,19	354	40,362
2	865,49	250	47,537
3	854,2	248	106,904
4	1106,32	133	137,357
5	1401,83	191	342,425
6	559,77	150	16,174
7	928,15	234	288,744
8	882,31	120	133,829
9	1222,46	253	4390,006
10	1507,79	156	10663,989
11	1234,53	252	181,636
12	841,29	216	85,426
13	1660,55	122	91,473
14	882,55	146	64,378
